
  27    0


   0  14 2 3 4 6 7 8 9 10 11 22 23 24 25 26 
   2   5 21 18 16 13 5 
   1   5 19 15 14 13 12 
   1   4 19 17 16 12 
   4   3 20 14 12 
   2   3 18 15 12 
  10   2 17 13 
   2   2 13 12 
   1   1 16 
   9   1 15 
   9   1 14 
  10   1 27
   4   1 27
   4   1 27
   5   1 27
   9   1 27
   5   1 27
  10   1 27
   2   1 27
   4   1 27
   8   1 27
   2   1 27
   5   1 27
   5   1 27
   6   1 27
   4   1 27
   0   0 
